p cnf 95 280
c t mc
-1 -2 -3 0
1 2 -3 0
-1 2 3 0
1 -2 3 0
4 -5 -6 0
-4 5 -6 0
4 5 6 0
-4 -5 6 0
-9 7 0
-9 -8 0
-7 8 9 0
-10 -6 0
-10 9 0
6 -9 10 0
-11 3 0
-11 -10 0
-3 10 11 0
-14 12 0
-14 13 0
-12 -13 14 0
15 -11 0
15 -14 0
11 14 -15 0
-18 16 0
-18 -17 0
-16 17 18 0
-20 -18 0
-20 19 0
18 -19 20 0
-15 -20 -21 0
15 20 -21 0
-15 20 21 0
15 -20 21 0
23 -2 0
23 -22 0
2 22 -23 0
-24 23 0
-24 -23 0
-26 -25 0
-26 22 0
25 -22 26 0
7 -26 -27 0
-7 26 -27 0
7 26 27 0
-7 -26 27 0
8 27 -28 0
-8 -27 -28 0
8 -27 28 0
-8 27 28 0
30 29 0
30 -17 0
-29 17 -30 0
31 -28 0
31 30 0
28 -30 -31 0
-4 -1 -32 0
4 1 -32 0
-4 1 32 0
4 -1 32 0
35 33 0
35 -34 0
-33 34 -35 0
38 -36 0
38 37 0
36 -37 -38 0
-40 34 0
-40 39 0
-34 -39 40 0
41 -1 0
41 40 0
1 -40 -41 0
42 -17 0
42 41 0
17 -41 -42 0
38 -42 -43 0
-38 42 -43 0
38 42 43 0
-38 -42 43 0
43 -5 -44 0
-43 5 -44 0
43 5 44 0
-43 -5 44 0
-45 -35 0
-45 44 0
35 -44 45 0
-32 -45 -46 0
32 45 -46 0
-32 45 46 0
32 -45 46 0
47 16 0
47 -25 0
-16 25 -47 0
48 29 0
48 -47 0
-29 47 -48 0
-49 30 0
-49 -1 0
-30 1 49 0
50 -48 0
50 -49 0
48 49 -50 0
51 46 0
51 50 0
-46 -50 -51 0
-52 -31 0
-52 -51 0
31 51 52 0
-53 24 0
-53 -52 0
-24 52 53 0
54 9 0
54 -30 0
-9 30 -54 0
26 40 -55 0
-26 -40 -55 0
26 -40 55 0
-26 40 55 0
56 39 0
56 55 0
-39 -55 -56 0
-57 54 0
-57 -56 0
-54 56 57 0
27 17 -58 0
-27 -17 -58 0
27 -17 58 0
-27 17 58 0
-59 1 0
-59 -25 0
-1 25 59 0
-16 13 -60 0
16 -13 -60 0
-16 -13 60 0
16 13 60 0
-61 60 0
-61 -60 0
-62 -59 0
-62 61 0
59 -61 62 0
47 -37 -63 0
-47 37 -63 0
47 37 63 0
-47 -37 63 0
64 62 0
64 63 0
-62 -63 -64 0
65 58 0
65 -64 0
-58 64 -65 0
61 17 -66 0
-61 -17 -66 0
61 -17 66 0
-61 17 66 0
-22 66 -67 0
22 -66 -67 0
-22 -66 67 0
22 66 67 0
68 65 0
68 -67 0
-65 67 -68 0
-60 -41 -69 0
60 41 -69 0
-60 41 69 0
60 -41 69 0
-70 -55 0
-70 -44 0
55 44 70 0
69 -70 -71 0
-69 70 -71 0
69 70 71 0
-69 -70 71 0
-17 72 -73 0
17 -72 -73 0
-17 -72 73 0
17 72 73 0
-74 -13 0
-74 -3 0
13 3 74 0
-75 73 0
-75 74 0
-73 -74 75 0
55 -26 -76 0
-55 26 -76 0
55 26 76 0
-55 -26 76 0
-77 75 0
-77 76 0
-75 -76 77 0
71 77 -78 0
-71 -77 -78 0
71 -77 78 0
-71 77 78 0
79 -68 0
79 -78 0
68 78 -79 0
-57 79 -80 0
57 -79 -80 0
-57 -79 80 0
57 79 80 0
81 -26 0
81 -36 0
26 36 -81 0
82 36 0
82 38 0
-36 -38 -82 0
-83 -29 0
-83 -39 0
29 39 83 0
5 22 -84 0
-5 -22 -84 0
5 -22 84 0
-5 22 84 0
85 83 0
85 -84 0
-83 84 -85 0
-86 -82 0
-86 -85 0
82 85 86 0
1 -87 -88 0
-1 87 -88 0
1 87 88 0
-1 -87 88 0
89 -86 0
89 -88 0
86 88 -89 0
38 -9 -90 0
-38 9 -90 0
38 9 90 0
-38 -9 90 0
89 90 -91 0
-89 -90 -91 0
89 -90 91 0
-89 90 91 0
-92 81 0
-92 91 0
-81 -91 92 0
-93 80 0
-93 -92 0
-80 92 93 0
94 -53 0
94 93 0
53 -93 -94 0
95 -21 0
95 94 0
21 -94 -95 0
76 -28 -42 -45 -24 0
-18 46 41 -72 50 0
9 16 18 0
-1 9 91 63 53 -15 57 39 -68 0
-40 82 -83 0
-7 -41 82 18 -16 -33 61 67 0
81 23 67 0
-17 -27 -2 13 -45 31 0
-50 -77 -39 22 72 -42 -64 81 0
78 16 88 -1 -15 -64 31 0
29 -16 -10 23 -40 71 8 -38 -34 0
-52 -64 -10 19 0
83 27 -73 3 82 6 -5 84 -35 0
75 83 49 -42 13 -89 0
7 -12 18 -65 39 -5 -6 91 0
15 -52 69 90 -45 -28 0
-8 -18 -91 57 73 0
-18 78 -57 -19 21 67 -15 -38 68 -7 0
1 -60 24 -72 43 0
-62 -64 0
18 -17 -13 -80 22 0
-52 -11 71 -3 -50 67 0
93 -40 0
22 -45 -46 93 61 0
-62 24 -85 17 54 0
6 41 -89 0
83 14 -57 -8 47 73 68 94 20 50 0
-84 69 16 83 0
82 -37 0
54 -52 0
53 -36 -47 92 -21 0
-63 81 -85 48 -41 65 -79 -84 0
-61 66 45 -17 -9 48 0
7 -79 19 68 -56 55 -62 -69 -59 53 0
95 0
